c "random instance"
p edges 150 2223
e 1 10
e 1 25
e 1 28
e 1 33
e 1 47
e 1 58
e 1 68
e 1 75
e 1 78
e 1 80
e 1 87
e 1 88
e 1 97
e 1 102
e 1 103
e 1 104
e 1 106
e 1 119
e 1 120
e 1 121
e 1 122
e 1 125
e 1 126
e 1 127
e 1 128
e 1 129
e 1 130
e 1 135
e 1 140
e 2 5
e 2 6
e 2 15
e 2 18
e 2 40
e 2 41
e 2 45
e 2 46
e 2 57
e 2 69
e 2 73
e 2 74
e 2 82
e 2 87
e 2 88
e 2 91
e 2 99
e 2 101
e 2 102
e 2 109
e 2 118
e 2 128
e 2 142
e 3 7
e 3 12
e 3 13
e 3 17
e 3 18
e 3 22
e 3 27
e 3 35
e 3 43
e 3 46
e 3 47
e 3 51
e 3 53
e 3 55
e 3 73
e 3 77
e 3 78
e 3 79
e 3 83
e 3 96
e 3 100
e 3 102
e 3 105
e 3 121
e 3 123
e 3 126
e 3 133
e 3 137
e 3 143
e 3 150
e 4 10
e 4 19
e 4 20
e 4 21
e 4 22
e 4 31
e 4 36
e 4 37
e 4 38
e 4 46
e 4 50
e 4 57
e 4 59
e 4 61
e 4 63
e 4 64
e 4 70
e 4 71
e 4 77
e 4 79
e 4 88
e 4 89
e 4 90
e 4 96
e 4 100
e 4 104
e 4 108
e 4 109
e 4 113
e 4 114
e 4 116
e 4 122
e 4 127
e 4 128
e 4 131
e 4 137
e 4 138
e 4 144
e 4 148
e 4 149
e 5 6
e 5 8
e 5 10
e 5 13
e 5 14
e 5 18
e 5 19
e 5 25
e 5 29
e 5 30
e 5 41
e 5 44
e 5 56
e 5 59
e 5 65
e 5 70
e 5 75
e 5 80
e 5 83
e 5 87
e 5 96
e 5 98
e 5 100
e 5 104
e 5 116
e 5 122
e 5 124
e 5 128
e 5 134
e 5 135
e 5 143
e 5 144
e 5 150
e 6 8
e 6 11
e 6 13
e 6 16
e 6 19
e 6 27
e 6 28
e 6 43
e 6 44
e 6 47
e 6 48
e 6 50
e 6 51
e 6 60
e 6 62
e 6 65
e 6 66
e 6 68
e 6 74
e 6 75
e 6 77
e 6 78
e 6 82
e 6 89
e 6 91
e 6 94
e 6 100
e 6 101
e 6 116
e 6 117
e 6 123
e 6 126
e 6 136
e 6 141
e 7 14
e 7 16
e 7 26
e 7 29
e 7 36
e 7 43
e 7 49
e 7 64
e 7 66
e 7 69
e 7 77
e 7 79
e 7 89
e 7 93
e 7 94
e 7 99
e 7 102
e 7 104
e 7 107
e 7 113
e 7 129
e 7 138
e 7 144
e 7 147
e 8 13
e 8 17
e 8 20
e 8 21
e 8 24
e 8 29
e 8 35
e 8 42
e 8 44
e 8 47
e 8 55
e 8 56
e 8 73
e 8 74
e 8 77
e 8 91
e 8 93
e 8 100
e 8 101
e 8 109
e 8 111
e 8 123
e 8 124
e 8 127
e 8 136
e 9 11
e 9 15
e 9 20
e 9 28
e 9 32
e 9 33
e 9 41
e 9 54
e 9 63
e 9 68
e 9 71
e 9 72
e 9 74
e 9 77
e 9 84
e 9 96
e 9 98
e 9 107
e 9 117
e 9 125
e 9 128
e 9 139
e 9 143
e 9 144
e 9 145
e 9 146
e 10 11
e 10 20
e 10 25
e 10 29
e 10 30
e 10 34
e 10 41
e 10 45
e 10 59
e 10 64
e 10 67
e 10 71
e 10 73
e 10 80
e 10 89
e 10 95
e 10 121
e 10 122
e 10 125
e 10 129
e 10 141
e 10 142
e 10 147
e 10 149
e 11 12
e 11 18
e 11 21
e 11 22
e 11 25
e 11 26
e 11 31
e 11 32
e 11 51
e 11 52
e 11 53
e 11 55
e 11 57
e 11 61
e 11 66
e 11 67
e 11 82
e 11 88
e 11 92
e 11 95
e 11 120
e 11 126
e 11 127
e 11 128
e 11 135
e 11 141
e 11 144
e 11 148
e 11 149
e 12 30
e 12 36
e 12 38
e 12 44
e 12 53
e 12 54
e 12 60
e 12 65
e 12 66
e 12 70
e 12 72
e 12 75
e 12 76
e 12 77
e 12 84
e 12 88
e 12 90
e 12 93
e 12 98
e 12 100
e 12 105
e 12 112
e 12 118
e 12 125
e 12 127
e 12 131
e 12 132
e 12 136
e 12 149
e 13 14
e 13 17
e 13 19
e 13 25
e 13 45
e 13 47
e 13 51
e 13 54
e 13 55
e 13 61
e 13 66
e 13 68
e 13 75
e 13 78
e 13 79
e 13 83
e 13 93
e 13 96
e 13 99
e 13 101
e 13 113
e 13 115
e 13 126
e 13 131
e 13 133
e 13 137
e 13 140
e 13 146
e 14 26
e 14 27
e 14 30
e 14 32
e 14 34
e 14 36
e 14 51
e 14 53
e 14 54
e 14 59
e 14 64
e 14 67
e 14 78
e 14 83
e 14 85
e 14 90
e 14 98
e 14 103
e 14 112
e 14 124
e 14 128
e 14 132
e 14 138
e 15 18
e 15 25
e 15 29
e 15 30
e 15 31
e 15 35
e 15 41
e 15 45
e 15 52
e 15 56
e 15 58
e 15 68
e 15 69
e 15 79
e 15 85
e 15 86
e 15 94
e 15 99
e 15 111
e 15 120
e 15 121
e 15 125
e 15 127
e 15 128
e 15 130
e 16 22
e 16 35
e 16 36
e 16 51
e 16 56
e 16 57
e 16 58
e 16 61
e 16 64
e 16 74
e 16 89
e 16 91
e 16 96
e 16 103
e 16 121
e 16 126
e 16 133
e 16 140
e 16 141
e 16 146
e 17 27
e 17 28
e 17 44
e 17 53
e 17 64
e 17 68
e 17 78
e 17 85
e 17 86
e 17 87
e 17 92
e 17 94
e 17 100
e 17 114
e 17 116
e 17 117
e 17 122
e 17 123
e 17 125
e 17 130
e 17 135
e 17 137
e 17 147
e 17 148
e 18 19
e 18 23
e 18 25
e 18 34
e 18 42
e 18 44
e 18 49
e 18 53
e 18 63
e 18 64
e 18 66
e 18 67
e 18 70
e 18 74
e 18 76
e 18 78
e 18 88
e 18 91
e 18 95
e 18 96
e 18 97
e 18 98
e 18 99
e 18 112
e 18 123
e 18 126
e 18 135
e 18 136
e 18 138
e 18 142
e 18 143
e 18 144
e 19 21
e 19 23
e 19 30
e 19 38
e 19 41
e 19 42
e 19 43
e 19 55
e 19 59
e 19 61
e 19 65
e 19 67
e 19 72
e 19 81
e 19 86
e 19 89
e 19 102
e 19 104
e 19 106
e 19 107
e 19 111
e 19 112
e 19 124
e 19 125
e 19 127
e 19 133
e 19 150
e 20 22
e 20 23
e 20 25
e 20 26
e 20 27
e 20 31
e 20 35
e 20 38
e 20 41
e 20 44
e 20 50
e 20 56
e 20 57
e 20 59
e 20 62
e 20 68
e 20 70
e 20 71
e 20 79
e 20 88
e 20 90
e 20 107
e 20 113
e 20 117
e 20 123
e 20 127
e 20 129
e 20 132
e 20 139
e 20 141
e 20 146
e 20 150
e 21 22
e 21 25
e 21 27
e 21 29
e 21 42
e 21 46
e 21 49
e 21 50
e 21 54
e 21 56
e 21 58
e 21 59
e 21 83
e 21 89
e 21 92
e 21 93
e 21 99
e 21 109
e 21 120
e 21 127
e 21 128
e 21 133
e 21 136
e 21 140
e 21 141
e 21 146
e 21 148
e 22 38
e 22 39
e 22 41
e 22 44
e 22 58
e 22 59
e 22 60
e 22 70
e 22 72
e 22 78
e 22 79
e 22 81
e 22 83
e 22 93
e 22 94
e 22 95
e 22 97
e 22 99
e 22 103
e 22 112
e 22 116
e 22 122
e 22 125
e 22 129
e 22 130
e 22 135
e 22 138
e 22 139
e 22 145
e 22 150
e 23 33
e 23 42
e 23 43
e 23 45
e 23 57
e 23 59
e 23 62
e 23 67
e 23 76
e 23 79
e 23 80
e 23 83
e 23 88
e 23 89
e 23 96
e 23 107
e 23 110
e 23 114
e 23 118
e 23 137
e 23 139
e 23 147
e 24 30
e 24 34
e 24 36
e 24 39
e 24 41
e 24 47
e 24 50
e 24 53
e 24 56
e 24 59
e 24 62
e 24 66
e 24 72
e 24 83
e 24 90
e 24 107
e 24 110
e 24 111
e 24 126
e 24 127
e 24 137
e 24 139
e 24 150
e 25 26
e 25 34
e 25 36
e 25 40
e 25 41
e 25 42
e 25 56
e 25 61
e 25 63
e 25 69
e 25 72
e 25 78
e 25 79
e 25 80
e 25 88
e 25 104
e 25 105
e 25 106
e 25 107
e 25 109
e 25 110
e 25 111
e 25 112
e 25 114
e 25 117
e 25 120
e 25 128
e 25 140
e 25 144
e 25 146
e 26 28
e 26 33
e 26 37
e 26 45
e 26 51
e 26 57
e 26 66
e 26 71
e 26 73
e 26 76
e 26 86
e 26 90
e 26 97
e 26 106
e 26 108
e 26 110
e 26 113
e 26 116
e 26 117
e 26 118
e 26 121
e 26 132
e 26 134
e 26 138
e 26 139
e 26 145
e 26 149
e 27 29
e 27 34
e 27 36
e 27 40
e 27 43
e 27 44
e 27 48
e 27 52
e 27 53
e 27 56
e 27 58
e 27 59
e 27 63
e 27 65
e 27 68
e 27 70
e 27 72
e 27 73
e 27 80
e 27 84
e 27 89
e 27 90
e 27 91
e 27 97
e 27 102
e 27 107
e 27 111
e 27 113
e 27 117
e 27 121
e 27 123
e 27 131
e 27 134
e 27 138
e 28 29
e 28 32
e 28 39
e 28 47
e 28 55
e 28 65
e 28 70
e 28 83
e 28 88
e 28 94
e 28 96
e 28 100
e 28 113
e 28 117
e 28 118
e 28 125
e 28 126
e 28 137
e 28 143
e 28 146
e 28 148
e 28 149
e 29 34
e 29 48
e 29 53
e 29 54
e 29 60
e 29 62
e 29 65
e 29 66
e 29 67
e 29 68
e 29 85
e 29 91
e 29 92
e 29 94
e 29 98
e 29 103
e 29 106
e 29 108
e 29 111
e 29 115
e 29 120
e 29 125
e 29 126
e 29 129
e 29 131
e 29 132
e 29 133
e 29 139
e 29 147
e 29 150
e 30 36
e 30 43
e 30 44
e 30 51
e 30 56
e 30 63
e 30 65
e 30 66
e 30 68
e 30 78
e 30 79
e 30 85
e 30 102
e 30 108
e 30 114
e 30 118
e 30 130
e 30 135
e 30 138
e 30 146
e 31 42
e 31 45
e 31 56
e 31 64
e 31 65
e 31 66
e 31 72
e 31 74
e 31 75
e 31 80
e 31 83
e 31 86
e 31 88
e 31 98
e 31 99
e 31 101
e 31 117
e 31 125
e 31 127
e 31 130
e 31 132
e 31 133
e 31 143
e 31 145
e 31 146
e 31 148
e 32 39
e 32 58
e 32 67
e 32 70
e 32 74
e 32 75
e 32 87
e 32 92
e 32 93
e 32 96
e 32 98
e 32 100
e 32 104
e 32 111
e 32 115
e 32 118
e 32 121
e 32 124
e 32 126
e 32 128
e 32 129
e 32 133
e 32 135
e 32 148
e 32 149
e 33 34
e 33 35
e 33 45
e 33 48
e 33 52
e 33 60
e 33 63
e 33 67
e 33 68
e 33 70
e 33 74
e 33 86
e 33 103
e 33 109
e 33 123
e 33 127
e 33 135
e 33 149
e 34 51
e 34 54
e 34 55
e 34 56
e 34 57
e 34 60
e 34 88
e 34 97
e 34 99
e 34 102
e 34 105
e 34 106
e 34 110
e 34 115
e 34 126
e 34 127
e 34 128
e 34 130
e 34 133
e 34 138
e 34 145
e 34 146
e 34 149
e 35 44
e 35 56
e 35 58
e 35 69
e 35 76
e 35 79
e 35 82
e 35 87
e 35 91
e 35 98
e 35 101
e 35 106
e 35 107
e 35 118
e 35 128
e 35 131
e 35 133
e 35 138
e 35 139
e 35 140
e 35 145
e 35 149
e 36 42
e 36 49
e 36 52
e 36 53
e 36 56
e 36 57
e 36 58
e 36 60
e 36 67
e 36 71
e 36 73
e 36 81
e 36 83
e 36 88
e 36 91
e 36 96
e 36 100
e 36 104
e 36 105
e 36 108
e 36 114
e 36 128
e 36 133
e 36 137
e 36 140
e 36 145
e 37 39
e 37 41
e 37 44
e 37 46
e 37 71
e 37 75
e 37 82
e 37 98
e 37 99
e 37 102
e 37 105
e 37 109
e 37 123
e 37 126
e 37 128
e 37 134
e 37 142
e 37 144
e 38 39
e 38 40
e 38 45
e 38 47
e 38 48
e 38 52
e 38 54
e 38 55
e 38 56
e 38 59
e 38 61
e 38 65
e 38 67
e 38 70
e 38 74
e 38 87
e 38 91
e 38 96
e 38 105
e 38 129
e 38 130
e 38 139
e 38 140
e 38 145
e 39 43
e 39 46
e 39 54
e 39 55
e 39 71
e 39 84
e 39 87
e 39 88
e 39 90
e 39 94
e 39 95
e 39 98
e 39 99
e 39 101
e 39 116
e 39 131
e 39 143
e 39 144
e 39 146
e 40 41
e 40 55
e 40 67
e 40 73
e 40 78
e 40 79
e 40 80
e 40 82
e 40 86
e 40 89
e 40 98
e 40 99
e 40 101
e 40 106
e 40 113
e 40 126
e 40 127
e 40 133
e 40 147
e 41 42
e 41 45
e 41 53
e 41 54
e 41 64
e 41 68
e 41 73
e 41 77
e 41 78
e 41 83
e 41 88
e 41 96
e 41 103
e 41 104
e 41 113
e 41 117
e 41 118
e 41 120
e 41 122
e 41 124
e 41 134
e 41 138
e 41 146
e 41 150
e 42 43
e 42 49
e 42 53
e 42 54
e 42 57
e 42 59
e 42 63
e 42 66
e 42 69
e 42 71
e 42 80
e 42 83
e 42 88
e 42 103
e 42 106
e 42 111
e 42 113
e 42 114
e 42 116
e 42 119
e 42 121
e 42 124
e 42 130
e 42 132
e 42 136
e 42 138
e 42 141
e 43 47
e 43 53
e 43 54
e 43 56
e 43 59
e 43 61
e 43 63
e 43 68
e 43 69
e 43 80
e 43 84
e 43 88
e 43 107
e 43 114
e 43 115
e 43 123
e 43 126
e 43 133
e 43 135
e 43 136
e 43 140
e 43 149
e 44 48
e 44 51
e 44 52
e 44 54
e 44 66
e 44 70
e 44 83
e 44 84
e 44 90
e 44 92
e 44 99
e 44 101
e 44 107
e 44 112
e 44 113
e 44 122
e 44 127
e 44 134
e 44 139
e 44 140
e 44 148
e 45 52
e 45 54
e 45 56
e 45 59
e 45 62
e 45 64
e 45 66
e 45 82
e 45 94
e 45 97
e 45 110
e 45 123
e 45 130
e 45 138
e 45 142
e 45 144
e 45 146
e 45 148
e 46 47
e 46 51
e 46 53
e 46 55
e 46 56
e 46 62
e 46 64
e 46 66
e 46 72
e 46 74
e 46 86
e 46 89
e 46 96
e 46 99
e 46 100
e 46 103
e 46 110
e 46 113
e 46 114
e 46 123
e 46 129
e 46 131
e 46 144
e 47 51
e 47 52
e 47 53
e 47 56
e 47 59
e 47 62
e 47 63
e 47 64
e 47 72
e 47 79
e 47 81
e 47 82
e 47 86
e 47 101
e 47 105
e 47 107
e 47 109
e 47 110
e 47 124
e 47 125
e 47 126
e 47 128
e 47 130
e 47 135
e 47 137
e 47 140
e 47 143
e 47 144
e 47 150
e 48 49
e 48 67
e 48 68
e 48 72
e 48 73
e 48 75
e 48 77
e 48 82
e 48 92
e 48 95
e 48 96
e 48 106
e 48 110
e 48 116
e 48 118
e 48 133
e 48 135
e 48 141
e 48 143
e 48 144
e 49 50
e 49 51
e 49 52
e 49 65
e 49 75
e 49 80
e 49 83
e 49 85
e 49 90
e 49 91
e 49 92
e 49 95
e 49 98
e 49 109
e 49 120
e 49 139
e 49 143
e 49 147
e 50 63
e 50 67
e 50 74
e 50 76
e 50 82
e 50 83
e 50 90
e 50 95
e 50 103
e 50 105
e 50 107
e 50 111
e 50 121
e 50 130
e 50 133
e 50 134
e 50 139
e 50 143
e 51 68
e 51 76
e 51 80
e 51 83
e 51 85
e 51 86
e 51 90
e 51 100
e 51 108
e 51 110
e 51 112
e 51 114
e 51 122
e 51 123
e 51 128
e 51 134
e 51 135
e 51 136
e 52 59
e 52 64
e 52 72
e 52 76
e 52 80
e 52 92
e 52 93
e 52 95
e 52 110
e 52 120
e 52 121
e 52 127
e 52 129
e 52 143
e 52 150
e 53 55
e 53 58
e 53 63
e 53 68
e 53 83
e 53 90
e 53 103
e 53 114
e 53 118
e 53 127
e 53 128
e 53 131
e 53 138
e 53 140
e 53 142
e 53 144
e 53 146
e 53 150
e 54 56
e 54 60
e 54 75
e 54 77
e 54 78
e 54 80
e 54 84
e 54 102
e 54 105
e 54 114
e 54 116
e 54 118
e 54 122
e 54 132
e 54 138
e 54 139
e 54 146
e 55 58
e 55 59
e 55 62
e 55 68
e 55 75
e 55 78
e 55 83
e 55 85
e 55 89
e 55 91
e 55 93
e 55 96
e 55 100
e 55 102
e 55 113
e 55 115
e 55 120
e 55 123
e 55 138
e 55 142
e 56 61
e 56 67
e 56 79
e 56 80
e 56 85
e 56 87
e 56 90
e 56 97
e 56 99
e 56 105
e 56 108
e 56 111
e 56 112
e 56 127
e 56 128
e 56 130
e 56 133
e 56 136
e 56 139
e 56 141
e 57 59
e 57 68
e 57 69
e 57 76
e 57 91
e 57 100
e 57 107
e 57 108
e 57 113
e 57 119
e 57 123
e 57 124
e 57 133
e 57 135
e 57 139
e 57 147
e 58 60
e 58 63
e 58 67
e 58 68
e 58 81
e 58 86
e 58 101
e 58 104
e 58 112
e 58 125
e 58 134
e 58 136
e 58 140
e 59 60
e 59 66
e 59 67
e 59 69
e 59 71
e 59 77
e 59 82
e 59 83
e 59 86
e 59 98
e 59 103
e 59 114
e 59 115
e 59 120
e 59 127
e 59 132
e 59 133
e 59 142
e 59 145
e 60 63
e 60 67
e 60 70
e 60 72
e 60 82
e 60 83
e 60 85
e 60 87
e 60 91
e 60 98
e 60 101
e 60 120
e 60 121
e 60 126
e 60 129
e 60 136
e 60 142
e 60 145
e 60 149
e 61 65
e 61 68
e 61 74
e 61 79
e 61 82
e 61 93
e 61 97
e 61 100
e 61 107
e 61 108
e 61 111
e 61 112
e 61 113
e 61 114
e 61 119
e 61 120
e 61 121
e 61 124
e 61 135
e 61 136
e 61 137
e 61 138
e 61 147
e 62 65
e 62 68
e 62 70
e 62 71
e 62 73
e 62 76
e 62 93
e 62 94
e 62 107
e 62 110
e 62 113
e 62 123
e 62 126
e 62 127
e 62 128
e 62 142
e 62 145
e 62 150
e 63 64
e 63 69
e 63 84
e 63 93
e 63 94
e 63 95
e 63 99
e 63 100
e 63 101
e 63 103
e 63 117
e 63 118
e 63 126
e 63 136
e 63 141
e 64 65
e 64 68
e 64 69
e 64 72
e 64 78
e 64 103
e 64 109
e 64 118
e 64 133
e 64 135
e 64 137
e 64 140
e 64 146
e 65 69
e 65 80
e 65 83
e 65 85
e 65 94
e 65 99
e 65 100
e 65 101
e 65 105
e 65 106
e 65 107
e 65 115
e 65 118
e 65 120
e 65 121
e 65 129
e 65 132
e 65 137
e 65 141
e 66 67
e 66 69
e 66 71
e 66 80
e 66 86
e 66 96
e 66 99
e 66 100
e 66 102
e 66 109
e 66 111
e 66 112
e 66 125
e 66 127
e 66 140
e 66 142
e 66 143
e 66 147
e 67 72
e 67 73
e 67 76
e 67 79
e 67 83
e 67 84
e 67 91
e 67 97
e 67 106
e 67 110
e 67 111
e 67 112
e 67 115
e 67 118
e 67 125
e 67 126
e 67 129
e 67 142
e 67 143
e 67 147
e 68 74
e 68 80
e 68 81
e 68 82
e 68 85
e 68 86
e 68 89
e 68 92
e 68 105
e 68 108
e 68 110
e 68 117
e 68 121
e 68 125
e 68 126
e 68 128
e 68 136
e 68 147
e 68 148
e 69 70
e 69 72
e 69 79
e 69 81
e 69 83
e 69 91
e 69 96
e 69 100
e 69 113
e 69 122
e 69 124
e 69 131
e 69 137
e 69 145
e 70 71
e 70 77
e 70 82
e 70 85
e 70 89
e 70 98
e 70 100
e 70 103
e 70 110
e 70 111
e 70 114
e 70 115
e 70 118
e 70 120
e 70 124
e 70 128
e 70 139
e 70 146
e 70 147
e 70 149
e 71 81
e 71 90
e 71 91
e 71 92
e 71 97
e 71 101
e 71 115
e 71 117
e 71 118
e 71 119
e 71 127
e 71 129
e 71 134
e 71 138
e 71 139
e 71 140
e 71 146
e 71 148
e 72 77
e 72 83
e 72 85
e 72 86
e 72 87
e 72 103
e 72 107
e 72 111
e 72 112
e 72 122
e 72 125
e 72 127
e 72 138
e 72 139
e 72 141
e 72 144
e 72 145
e 73 76
e 73 80
e 73 81
e 73 83
e 73 87
e 73 90
e 73 95
e 73 121
e 73 126
e 73 128
e 73 129
e 73 130
e 73 133
e 73 135
e 73 149
e 74 80
e 74 81
e 74 83
e 74 85
e 74 91
e 74 96
e 74 105
e 74 113
e 74 123
e 74 125
e 74 126
e 74 127
e 74 143
e 74 147
e 74 148
e 74 150
e 75 79
e 75 94
e 75 97
e 75 110
e 75 112
e 75 116
e 75 117
e 75 118
e 75 131
e 75 132
e 75 134
e 75 139
e 75 144
e 75 149
e 76 80
e 76 85
e 76 90
e 76 91
e 76 108
e 76 112
e 76 119
e 76 122
e 76 123
e 76 131
e 76 133
e 76 134
e 76 137
e 76 139
e 76 142
e 76 147
e 77 78
e 77 80
e 77 81
e 77 84
e 77 99
e 77 110
e 77 112
e 77 113
e 77 116
e 77 130
e 77 132
e 77 139
e 77 150
e 78 82
e 78 83
e 78 93
e 78 98
e 78 102
e 78 112
e 78 129
e 78 133
e 78 139
e 79 84
e 79 89
e 79 91
e 79 96
e 79 97
e 79 101
e 79 110
e 79 111
e 79 121
e 79 124
e 79 127
e 79 140
e 79 144
e 80 89
e 80 90
e 80 101
e 80 106
e 80 110
e 80 113
e 80 114
e 80 118
e 80 127
e 80 132
e 80 135
e 80 138
e 80 146
e 80 150
e 81 89
e 81 90
e 81 95
e 81 100
e 81 102
e 81 104
e 81 105
e 81 106
e 81 110
e 81 115
e 81 116
e 81 126
e 81 128
e 81 133
e 81 138
e 81 149
e 82 87
e 82 91
e 82 92
e 82 103
e 82 104
e 82 106
e 82 108
e 82 113
e 82 122
e 82 130
e 82 140
e 82 141
e 83 94
e 83 100
e 83 102
e 83 111
e 83 113
e 83 127
e 83 141
e 84 86
e 84 88
e 84 90
e 84 102
e 84 104
e 84 116
e 84 118
e 84 121
e 84 122
e 84 139
e 84 142
e 84 149
e 85 86
e 85 92
e 85 93
e 85 96
e 85 108
e 85 113
e 85 116
e 85 130
e 85 132
e 85 134
e 85 135
e 85 139
e 85 140
e 85 142
e 85 145
e 85 147
e 86 96
e 86 98
e 86 100
e 86 117
e 86 120
e 86 121
e 86 128
e 86 137
e 86 145
e 86 147
e 86 150
e 87 94
e 87 98
e 87 99
e 87 108
e 87 116
e 87 123
e 87 128
e 87 129
e 87 137
e 87 142
e 87 143
e 87 146
e 88 92
e 88 96
e 88 105
e 88 116
e 88 126
e 88 133
e 88 138
e 88 141
e 88 149
e 89 93
e 89 94
e 89 100
e 89 107
e 89 117
e 89 121
e 89 127
e 89 138
e 89 139
e 89 140
e 89 141
e 89 144
e 89 146
e 89 149
e 90 98
e 90 101
e 90 114
e 90 118
e 90 121
e 90 124
e 90 127
e 90 129
e 90 136
e 90 143
e 91 92
e 91 94
e 91 95
e 91 97
e 91 104
e 91 109
e 91 114
e 91 115
e 91 124
e 91 133
e 91 136
e 91 137
e 91 143
e 91 146
e 91 147
e 92 100
e 92 102
e 92 103
e 92 106
e 92 111
e 92 113
e 92 115
e 92 116
e 92 118
e 92 135
e 92 136
e 92 137
e 92 140
e 92 141
e 92 144
e 92 149
e 93 107
e 93 108
e 93 119
e 93 120
e 93 122
e 93 124
e 93 127
e 93 128
e 93 129
e 93 130
e 93 131
e 93 132
e 93 142
e 93 145
e 94 96
e 94 104
e 94 105
e 94 111
e 94 116
e 94 120
e 94 121
e 94 133
e 94 134
e 94 135
e 94 136
e 94 140
e 95 97
e 95 103
e 95 110
e 95 114
e 95 121
e 95 127
e 95 132
e 95 139
e 95 146
e 96 100
e 96 101
e 96 103
e 96 104
e 96 107
e 96 115
e 96 117
e 96 122
e 96 125
e 96 130
e 96 134
e 96 135
e 96 138
e 96 141
e 96 145
e 96 148
e 97 98
e 97 101
e 97 103
e 97 106
e 97 109
e 97 110
e 97 120
e 97 123
e 97 129
e 97 138
e 97 142
e 98 100
e 98 102
e 98 103
e 98 105
e 98 110
e 98 120
e 98 126
e 99 111
e 99 115
e 99 117
e 99 118
e 99 122
e 99 123
e 99 125
e 99 126
e 99 137
e 99 138
e 99 143
e 99 144
e 99 148
e 100 102
e 100 116
e 100 117
e 100 128
e 101 102
e 101 108
e 101 114
e 101 116
e 101 118
e 101 120
e 101 121
e 101 126
e 101 130
e 101 131
e 101 142
e 101 144
e 101 147
e 102 105
e 102 112
e 102 119
e 102 121
e 102 123
e 102 126
e 102 131
e 102 133
e 102 147
e 103 104
e 103 106
e 103 119
e 103 123
e 103 131
e 103 138
e 103 139
e 104 113
e 104 119
e 104 120
e 104 121
e 104 125
e 104 128
e 104 139
e 104 146
e 104 148
e 105 109
e 105 116
e 105 117
e 105 118
e 105 121
e 105 134
e 105 138
e 105 149
e 106 107
e 106 113
e 106 129
e 106 133
e 106 138
e 106 145
e 106 146
e 106 148
e 107 119
e 107 120
e 107 121
e 107 126
e 107 129
e 107 133
e 107 135
e 107 144
e 108 117
e 108 129
e 108 130
e 108 133
e 108 149
e 108 150
e 109 112
e 109 119
e 109 126
e 109 132
e 109 135
e 109 138
e 109 147
e 110 114
e 110 130
e 110 134
e 110 138
e 110 139
e 110 142
e 110 144
e 110 147
e 111 113
e 111 115
e 111 123
e 111 129
e 111 136
e 112 119
e 112 123
e 112 124
e 112 125
e 112 130
e 112 133
e 112 142
e 112 148
e 113 118
e 113 119
e 113 127
e 113 135
e 113 140
e 113 143
e 113 144
e 113 149
e 114 120
e 114 121
e 114 132
e 114 135
e 114 139
e 114 140
e 114 141
e 115 117
e 115 119
e 115 130
e 115 134
e 115 135
e 115 138
e 115 144
e 115 148
e 116 117
e 116 124
e 116 126
e 116 127
e 116 136
e 116 141
e 116 150
e 117 122
e 117 125
e 117 127
e 117 129
e 117 134
e 117 138
e 117 140
e 117 149
e 118 121
e 118 125
e 118 126
e 118 137
e 118 142
e 119 128
e 119 132
e 119 135
e 119 142
e 119 149
e 120 126
e 120 127
e 120 129
e 120 142
e 121 134
e 121 141
e 121 143
e 121 144
e 122 124
e 122 129
e 122 130
e 122 131
e 123 127
e 123 129
e 123 130
e 123 133
e 123 136
e 123 141
e 124 137
e 124 138
e 124 141
e 125 134
e 125 142
e 125 143
e 125 145
e 125 146
e 126 138
e 126 143
e 126 145
e 126 147
e 127 130
e 127 132
e 127 137
e 127 142
e 127 147
e 128 130
e 128 131
e 128 134
e 129 137
e 129 147
e 129 149
e 130 140
e 130 142
e 130 144
e 130 150
e 131 134
e 131 144
e 131 150
e 132 150
e 133 136
e 133 139
e 133 140
e 133 145
e 134 135
e 134 136
e 134 147
e 134 148
e 135 136
e 135 137
e 135 142
e 135 145
e 135 146
e 135 147
e 136 140
e 136 145
e 136 146
e 137 150
e 139 143
e 140 141
e 140 144
e 140 150
e 142 144
e 142 148
e 143 144
e 144 147
e 144 148
e 145 146
e 145 147
e 145 149
e 146 148
e 148 149
e 149 150
